<?xml version="1.0" encoding="UTF-8"?><osil xmlns="os.optimizationservices.org"   xmlns:xsi="http://www.w3.org/2001/XMLSchema-instance" xsi:schemaLocation="os.optimizationservices.org http://www.optimizationservices.org/schemas/2.0/OSiL.xsd" ><instanceHeader><name>q_40_0_75_5</name></instanceHeader><instanceData><variables numberOfVariables="40"><var name="x1" ub="1"/><var name="x2" ub="1"/><var name="x3" ub="1"/><var name="x4" ub="1"/><var name="x5" ub="1"/><var name="x6" ub="1"/><var name="x7" ub="1"/><var name="x8" ub="1"/><var name="x9" ub="1"/><var name="x10" ub="1"/><var name="x11" ub="1"/><var name="x12" ub="1"/><var name="x13" ub="1"/><var name="x14" ub="1"/><var name="x15" ub="1"/><var name="x16" ub="1"/><var name="x17" ub="1"/><var name="x18" ub="1"/><var name="x19" ub="1"/><var name="x20" ub="1"/><var name="x21" ub="1"/><var name="x22" ub="1"/><var name="x23" ub="1"/><var name="x24" ub="1"/><var name="x25" ub="1"/><var name="x26" ub="1"/><var name="x27" ub="1"/><var name="x28" ub="1"/><var name="x29" ub="1"/><var name="x30" ub="1"/><var name="x31" ub="1"/><var name="x32" ub="1"/><var name="x33" ub="1"/><var name="x34" ub="1"/><var name="x35" ub="1"/><var name="x36" ub="1"/><var name="x37" ub="1"/><var name="x38" ub="1"/><var name="x39" ub="1"/><var name="x40" ub="1"/></variables><objectives numberOfObjectives="1"><obj maxOrMin="min" name="defObj_x41" numberOfObjCoef="40"><coef idx="0">-.7617</coef><coef idx="1">.4253</coef><coef idx="2">-.7591</coef><coef idx="3">-.4711</coef><coef idx="4">-.4036</coef><coef idx="5">-.9324</coef><coef idx="6">.1744</coef><coef idx="7">-.2677</coef><coef idx="8">-.4433</coef><coef idx="9">.6942</coef><coef idx="10">.2176</coef><coef idx="11">.4455</coef><coef idx="12">-.7685</coef><coef idx="13">.113</coef><coef idx="14">.7899</coef><coef idx="15">-.1457</coef><coef idx="16">.2776</coef><coef idx="17">-.9375</coef><coef idx="18">-.9581</coef><coef idx="19">.8377</coef><coef idx="20">-.545</coef><coef idx="21">-9.61e-2</coef><coef idx="22">-.7688</coef><coef idx="23">-.285</coef><coef idx="24">-.702</coef><coef idx="25">-.2304</coef><coef idx="26">-4.4e-2</coef><coef idx="27">-.3021</coef><coef idx="28">-.488</coef><coef idx="29">.4032</coef><coef idx="30">.3024</coef><coef idx="31">-.6762</coef><coef idx="32">1.88e-2</coef><coef idx="33">.8075</coef><coef idx="34">.7659</coef><coef idx="35">.1478</coef><coef idx="36">.3169</coef><coef idx="37">.435</coef><coef idx="38">-.4588</coef><coef idx="39">.3038</coef></obj></objectives><quadraticCoefficients  numberOfQuadraticTerms="420" ><qTerm  idx="-1"  idxOne="0"  idxTwo="0"  coef=".7562"/><qTerm  idx="-1"  idxOne="0"  idxTwo="3"  coef=".1054"/><qTerm  idx="-1"  idxOne="0"  idxTwo="5"  coef="-.6029"/><qTerm  idx="-1"  idxOne="0"  idxTwo="7"  coef="-.9123"/><qTerm  idx="-1"  idxOne="0"  idxTwo="8"  coef=".8545"/><qTerm  idx="-1"  idxOne="0"  idxTwo="9"  coef=".8553"/><qTerm  idx="-1"  idxOne="0"  idxTwo="10"  coef=".9019"/><qTerm  idx="-1"  idxOne="0"  idxTwo="12"  coef=".2495"/><qTerm  idx="-1"  idxOne="0"  idxTwo="13"  coef="-3.23e-2"/><qTerm  idx="-1"  idxOne="0"  idxTwo="14"  coef=".2446"/><qTerm  idx="-1"  idxOne="0"  idxTwo="15"  coef="-.1502"/><qTerm  idx="-1"  idxOne="0"  idxTwo="16"  coef=".9511"/><qTerm  idx="-1"  idxOne="0"  idxTwo="17"  coef=".7825"/><qTerm  idx="-1"  idxOne="0"  idxTwo="18"  coef="-.9537"/><qTerm  idx="-1"  idxOne="0"  idxTwo="19"  coef="-.6874"/><qTerm  idx="-1"  idxOne="0"  idxTwo="21"  coef=".581"/><qTerm  idx="-1"  idxOne="0"  idxTwo="22"  coef="-1.44e-2"/><qTerm  idx="-1"  idxOne="0"  idxTwo="23"  coef="7.42e-2"/><qTerm  idx="-1"  idxOne="0"  idxTwo="25"  coef="-7.1e-2"/><qTerm  idx="-1"  idxOne="0"  idxTwo="27"  coef=".9922"/><qTerm  idx="-1"  idxOne="0"  idxTwo="28"  coef="-.5014"/><qTerm  idx="-1"  idxOne="0"  idxTwo="29"  coef="-.2371"/><qTerm  idx="-1"  idxOne="0"  idxTwo="30"  coef="-.4118"/><qTerm  idx="-1"  idxOne="0"  idxTwo="31"  coef=".3072"/><qTerm  idx="-1"  idxOne="0"  idxTwo="33"  coef="-.5832"/><qTerm  idx="-1"  idxOne="0"  idxTwo="34"  coef="2.66e-2"/><qTerm  idx="-1"  idxOne="0"  idxTwo="36"  coef="-.1498"/><qTerm  idx="-1"  idxOne="0"  idxTwo="37"  coef=".8757"/><qTerm  idx="-1"  idxOne="0"  idxTwo="38"  coef=".9574"/><qTerm  idx="-1"  idxOne="0"  idxTwo="39"  coef=".5563"/><qTerm  idx="-1"  idxOne="1"  idxTwo="1"  coef="-.2097"/><qTerm  idx="-1"  idxOne="1"  idxTwo="2"  coef="-.2159"/><qTerm  idx="-1"  idxOne="1"  idxTwo="3"  coef="-.6998"/><qTerm  idx="-1"  idxOne="1"  idxTwo="4"  coef=".8244"/><qTerm  idx="-1"  idxOne="1"  idxTwo="5"  coef=".7033"/><qTerm  idx="-1"  idxOne="1"  idxTwo="8"  coef="-.8635"/><qTerm  idx="-1"  idxOne="1"  idxTwo="10"  coef="-.7218"/><qTerm  idx="-1"  idxOne="1"  idxTwo="14"  coef="-.3776"/><qTerm  idx="-1"  idxOne="1"  idxTwo="16"  coef="-.4928"/><qTerm  idx="-1"  idxOne="1"  idxTwo="22"  coef=".5289"/><qTerm  idx="-1"  idxOne="1"  idxTwo="23"  coef=".8437"/><qTerm  idx="-1"  idxOne="1"  idxTwo="26"  coef=".9803"/><qTerm  idx="-1"  idxOne="1"  idxTwo="29"  coef="-.3441"/><qTerm  idx="-1"  idxOne="1"  idxTwo="34"  coef=".6732"/><qTerm  idx="-1"  idxOne="1"  idxTwo="37"  coef="-.3603"/><qTerm  idx="-1"  idxOne="1"  idxTwo="39"  coef=".2267"/><qTerm  idx="-1"  idxOne="2"  idxTwo="2"  coef="-.4839"/><qTerm  idx="-1"  idxOne="2"  idxTwo="4"  coef=".3173"/><qTerm  idx="-1"  idxOne="2"  idxTwo="5"  coef="-.2133"/><qTerm  idx="-1"  idxOne="2"  idxTwo="7"  coef="-.8561"/><qTerm  idx="-1"  idxOne="2"  idxTwo="8"  coef="-.9956"/><qTerm  idx="-1"  idxOne="2"  idxTwo="9"  coef="-.7008"/><qTerm  idx="-1"  idxOne="2"  idxTwo="10"  coef=".3533"/><qTerm  idx="-1"  idxOne="2"  idxTwo="12"  coef=".4395"/><qTerm  idx="-1"  idxOne="2"  idxTwo="17"  coef="-4.06e-2"/><qTerm  idx="-1"  idxOne="2"  idxTwo="19"  coef=".1996"/><qTerm  idx="-1"  idxOne="2"  idxTwo="23"  coef=".1182"/><qTerm  idx="-1"  idxOne="2"  idxTwo="24"  coef=".2674"/><qTerm  idx="-1"  idxOne="2"  idxTwo="25"  coef="-.7855"/><qTerm  idx="-1"  idxOne="2"  idxTwo="26"  coef=".5012"/><qTerm  idx="-1"  idxOne="2"  idxTwo="28"  coef="-.7145"/><qTerm  idx="-1"  idxOne="2"  idxTwo="30"  coef=".2032"/><qTerm  idx="-1"  idxOne="2"  idxTwo="32"  coef=".8976"/><qTerm  idx="-1"  idxOne="2"  idxTwo="33"  coef="-.1587"/><qTerm  idx="-1"  idxOne="2"  idxTwo="34"  coef="-.1052"/><qTerm  idx="-1"  idxOne="2"  idxTwo="35"  coef="-.4683"/><qTerm  idx="-1"  idxOne="2"  idxTwo="36"  coef="-.532"/><qTerm  idx="-1"  idxOne="2"  idxTwo="38"  coef=".9235"/><qTerm  idx="-1"  idxOne="2"  idxTwo="39"  coef=".1926"/><qTerm  idx="-1"  idxOne="3"  idxTwo="3"  coef=".7038"/><qTerm  idx="-1"  idxOne="3"  idxTwo="5"  coef=".1143"/><qTerm  idx="-1"  idxOne="3"  idxTwo="6"  coef="-.9603"/><qTerm  idx="-1"  idxOne="3"  idxTwo="7"  coef="-.9444"/><qTerm  idx="-1"  idxOne="3"  idxTwo="8"  coef=".5849"/><qTerm  idx="-1"  idxOne="3"  idxTwo="9"  coef="-.8066"/><qTerm  idx="-1"  idxOne="3"  idxTwo="11"  coef=".6834"/><qTerm  idx="-1"  idxOne="3"  idxTwo="13"  coef=".4947"/><qTerm  idx="-1"  idxOne="3"  idxTwo="15"  coef=".9492"/><qTerm  idx="-1"  idxOne="3"  idxTwo="16"  coef="7.8e-3"/><qTerm  idx="-1"  idxOne="3"  idxTwo="17"  coef=".8338"/><qTerm  idx="-1"  idxOne="3"  idxTwo="19"  coef="5.05e-2"/><qTerm  idx="-1"  idxOne="3"  idxTwo="20"  coef="2.02e-2"/><qTerm  idx="-1"  idxOne="3"  idxTwo="21"  coef="-.442"/><qTerm  idx="-1"  idxOne="3"  idxTwo="25"  coef="-8.9e-2"/><qTerm  idx="-1"  idxOne="3"  idxTwo="28"  coef=".9525"/><qTerm  idx="-1"  idxOne="3"  idxTwo="29"  coef=".9665"/><qTerm  idx="-1"  idxOne="3"  idxTwo="36"  coef=".3407"/><qTerm  idx="-1"  idxOne="3"  idxTwo="38"  coef="-.2846"/><qTerm  idx="-1"  idxOne="3"  idxTwo="39"  coef=".6865"/><qTerm  idx="-1"  idxOne="4"  idxTwo="4"  coef=".9168"/><qTerm  idx="-1"  idxOne="4"  idxTwo="6"  coef="-.4277"/><qTerm  idx="-1"  idxOne="4"  idxTwo="8"  coef=".9337"/><qTerm  idx="-1"  idxOne="4"  idxTwo="11"  coef=".3916"/><qTerm  idx="-1"  idxOne="4"  idxTwo="13"  coef=".5206"/><qTerm  idx="-1"  idxOne="4"  idxTwo="14"  coef=".5354"/><qTerm  idx="-1"  idxOne="4"  idxTwo="15"  coef="-.4595"/><qTerm  idx="-1"  idxOne="4"  idxTwo="16"  coef="-.8079"/><qTerm  idx="-1"  idxOne="4"  idxTwo="21"  coef="-.2053"/><qTerm  idx="-1"  idxOne="4"  idxTwo="22"  coef=".6911"/><qTerm  idx="-1"  idxOne="4"  idxTwo="24"  coef="-.8627"/><qTerm  idx="-1"  idxOne="4"  idxTwo="25"  coef="-.642"/><qTerm  idx="-1"  idxOne="4"  idxTwo="26"  coef="-.7774"/><qTerm  idx="-1"  idxOne="4"  idxTwo="28"  coef=".6641"/><qTerm  idx="-1"  idxOne="4"  idxTwo="32"  coef="-.4726"/><qTerm  idx="-1"  idxOne="4"  idxTwo="33"  coef=".4219"/><qTerm  idx="-1"  idxOne="4"  idxTwo="34"  coef=".2989"/><qTerm  idx="-1"  idxOne="4"  idxTwo="39"  coef=".7658"/><qTerm  idx="-1"  idxOne="5"  idxTwo="7"  coef=".8197"/><qTerm  idx="-1"  idxOne="5"  idxTwo="11"  coef="-.6445"/><qTerm  idx="-1"  idxOne="5"  idxTwo="12"  coef="-.8204"/><qTerm  idx="-1"  idxOne="5"  idxTwo="13"  coef="-.8569"/><qTerm  idx="-1"  idxOne="5"  idxTwo="15"  coef="-.9461"/><qTerm  idx="-1"  idxOne="5"  idxTwo="17"  coef="-.9841"/><qTerm  idx="-1"  idxOne="5"  idxTwo="21"  coef=".7705"/><qTerm  idx="-1"  idxOne="5"  idxTwo="23"  coef="-.5675"/><qTerm  idx="-1"  idxOne="5"  idxTwo="25"  coef=".8434"/><qTerm  idx="-1"  idxOne="5"  idxTwo="28"  coef=".9749"/><qTerm  idx="-1"  idxOne="5"  idxTwo="29"  coef=".2175"/><qTerm  idx="-1"  idxOne="5"  idxTwo="31"  coef=".5388"/><qTerm  idx="-1"  idxOne="5"  idxTwo="32"  coef=".1837"/><qTerm  idx="-1"  idxOne="5"  idxTwo="39"  coef="-.6169"/><qTerm  idx="-1"  idxOne="6"  idxTwo="6"  coef="-.9773"/><qTerm  idx="-1"  idxOne="6"  idxTwo="8"  coef=".3342"/><qTerm  idx="-1"  idxOne="6"  idxTwo="11"  coef=".3202"/><qTerm  idx="-1"  idxOne="6"  idxTwo="13"  coef=".5558"/><qTerm  idx="-1"  idxOne="6"  idxTwo="14"  coef=".8048"/><qTerm  idx="-1"  idxOne="6"  idxTwo="18"  coef="-.6302"/><qTerm  idx="-1"  idxOne="6"  idxTwo="20"  coef=".2241"/><qTerm  idx="-1"  idxOne="6"  idxTwo="22"  coef=".442"/><qTerm  idx="-1"  idxOne="6"  idxTwo="28"  coef="-.3751"/><qTerm  idx="-1"  idxOne="6"  idxTwo="29"  coef=".9042"/><qTerm  idx="-1"  idxOne="6"  idxTwo="30"  coef=".9389"/><qTerm  idx="-1"  idxOne="6"  idxTwo="31"  coef=".3738"/><qTerm  idx="-1"  idxOne="6"  idxTwo="34"  coef="-.2979"/><qTerm  idx="-1"  idxOne="6"  idxTwo="35"  coef=".5392"/><qTerm  idx="-1"  idxOne="6"  idxTwo="37"  coef=".8408"/><qTerm  idx="-1"  idxOne="6"  idxTwo="39"  coef="-7.68e-2"/><qTerm  idx="-1"  idxOne="7"  idxTwo="11"  coef=".3593"/><qTerm  idx="-1"  idxOne="7"  idxTwo="12"  coef=".8522"/><qTerm  idx="-1"  idxOne="7"  idxTwo="18"  coef="-9.76e-2"/><qTerm  idx="-1"  idxOne="7"  idxTwo="19"  coef="3.24e-2"/><qTerm  idx="-1"  idxOne="7"  idxTwo="20"  coef="-.3814"/><qTerm  idx="-1"  idxOne="7"  idxTwo="23"  coef="-.7675"/><qTerm  idx="-1"  idxOne="7"  idxTwo="25"  coef="-.6097"/><qTerm  idx="-1"  idxOne="7"  idxTwo="28"  coef=".589"/><qTerm  idx="-1"  idxOne="7"  idxTwo="33"  coef=".9416"/><qTerm  idx="-1"  idxOne="7"  idxTwo="34"  coef="-.1678"/><qTerm  idx="-1"  idxOne="7"  idxTwo="35"  coef=".1627"/><qTerm  idx="-1"  idxOne="7"  idxTwo="39"  coef=".6886"/><qTerm  idx="-1"  idxOne="8"  idxTwo="8"  coef=".8271"/><qTerm  idx="-1"  idxOne="8"  idxTwo="10"  coef="-.3478"/><qTerm  idx="-1"  idxOne="8"  idxTwo="12"  coef=".4161"/><qTerm  idx="-1"  idxOne="8"  idxTwo="13"  coef="-.2334"/><qTerm  idx="-1"  idxOne="8"  idxTwo="14"  coef=".819"/><qTerm  idx="-1"  idxOne="8"  idxTwo="15"  coef=".3818"/><qTerm  idx="-1"  idxOne="8"  idxTwo="24"  coef="3.76e-2"/><qTerm  idx="-1"  idxOne="8"  idxTwo="25"  coef=".1568"/><qTerm  idx="-1"  idxOne="8"  idxTwo="29"  coef=".9232"/><qTerm  idx="-1"  idxOne="8"  idxTwo="30"  coef="-.5745"/><qTerm  idx="-1"  idxOne="8"  idxTwo="31"  coef=".4508"/><qTerm  idx="-1"  idxOne="8"  idxTwo="32"  coef="-.4825"/><qTerm  idx="-1"  idxOne="8"  idxTwo="33"  coef=".514"/><qTerm  idx="-1"  idxOne="8"  idxTwo="35"  coef="-.5198"/><qTerm  idx="-1"  idxOne="8"  idxTwo="39"  coef="-.451"/><qTerm  idx="-1"  idxOne="9"  idxTwo="11"  coef=".8841"/><qTerm  idx="-1"  idxOne="9"  idxTwo="12"  coef=".4196"/><qTerm  idx="-1"  idxOne="9"  idxTwo="14"  coef="-.4617"/><qTerm  idx="-1"  idxOne="9"  idxTwo="15"  coef="-9.27e-2"/><qTerm  idx="-1"  idxOne="9"  idxTwo="16"  coef=".3679"/><qTerm  idx="-1"  idxOne="9"  idxTwo="18"  coef=".8674"/><qTerm  idx="-1"  idxOne="9"  idxTwo="19"  coef=".5295"/><qTerm  idx="-1"  idxOne="9"  idxTwo="21"  coef="-.7121"/><qTerm  idx="-1"  idxOne="9"  idxTwo="22"  coef=".5001"/><qTerm  idx="-1"  idxOne="9"  idxTwo="27"  coef=".283"/><qTerm  idx="-1"  idxOne="9"  idxTwo="28"  coef=".6245"/><qTerm  idx="-1"  idxOne="9"  idxTwo="29"  coef=".9058"/><qTerm  idx="-1"  idxOne="9"  idxTwo="31"  coef="-.3295"/><qTerm  idx="-1"  idxOne="9"  idxTwo="34"  coef=".3872"/><qTerm  idx="-1"  idxOne="10"  idxTwo="10"  coef="-.8014"/><qTerm  idx="-1"  idxOne="10"  idxTwo="11"  coef="-.9362"/><qTerm  idx="-1"  idxOne="10"  idxTwo="14"  coef="-.6657"/><qTerm  idx="-1"  idxOne="10"  idxTwo="15"  coef=".3599"/><qTerm  idx="-1"  idxOne="10"  idxTwo="16"  coef=".6355"/><qTerm  idx="-1"  idxOne="10"  idxTwo="17"  coef="6.42e-2"/><qTerm  idx="-1"  idxOne="10"  idxTwo="18"  coef="-.6777"/><qTerm  idx="-1"  idxOne="10"  idxTwo="20"  coef="-.6887"/><qTerm  idx="-1"  idxOne="10"  idxTwo="24"  coef=".613"/><qTerm  idx="-1"  idxOne="10"  idxTwo="29"  coef="-.8783"/><qTerm  idx="-1"  idxOne="10"  idxTwo="30"  coef=".9079"/><qTerm  idx="-1"  idxOne="10"  idxTwo="31"  coef="9.68e-2"/><qTerm  idx="-1"  idxOne="10"  idxTwo="33"  coef="-.6751"/><qTerm  idx="-1"  idxOne="10"  idxTwo="34"  coef=".7209"/><qTerm  idx="-1"  idxOne="10"  idxTwo="35"  coef="-.3303"/><qTerm  idx="-1"  idxOne="10"  idxTwo="36"  coef=".3026"/><qTerm  idx="-1"  idxOne="10"  idxTwo="38"  coef="-.3284"/><qTerm  idx="-1"  idxOne="10"  idxTwo="39"  coef=".421"/><qTerm  idx="-1"  idxOne="11"  idxTwo="11"  coef="-.1678"/><qTerm  idx="-1"  idxOne="11"  idxTwo="12"  coef=".7582"/><qTerm  idx="-1"  idxOne="11"  idxTwo="13"  coef="-.706"/><qTerm  idx="-1"  idxOne="11"  idxTwo="16"  coef="-.8544"/><qTerm  idx="-1"  idxOne="11"  idxTwo="19"  coef="-.9137"/><qTerm  idx="-1"  idxOne="11"  idxTwo="20"  coef=".7464"/><qTerm  idx="-1"  idxOne="11"  idxTwo="21"  coef="-2.87e-2"/><qTerm  idx="-1"  idxOne="11"  idxTwo="29"  coef="-.5369"/><qTerm  idx="-1"  idxOne="11"  idxTwo="30"  coef="-.4088"/><qTerm  idx="-1"  idxOne="11"  idxTwo="32"  coef="-.1761"/><qTerm  idx="-1"  idxOne="11"  idxTwo="33"  coef="-8.68e-2"/><qTerm  idx="-1"  idxOne="11"  idxTwo="34"  coef=".7831"/><qTerm  idx="-1"  idxOne="11"  idxTwo="35"  coef="-.6721"/><qTerm  idx="-1"  idxOne="11"  idxTwo="37"  coef="1.12e-2"/><qTerm  idx="-1"  idxOne="11"  idxTwo="38"  coef=".9061"/><qTerm  idx="-1"  idxOne="11"  idxTwo="39"  coef=".9673"/><qTerm  idx="-1"  idxOne="12"  idxTwo="13"  coef="-.4173"/><qTerm  idx="-1"  idxOne="12"  idxTwo="14"  coef=".8578"/><qTerm  idx="-1"  idxOne="12"  idxTwo="17"  coef=".1993"/><qTerm  idx="-1"  idxOne="12"  idxTwo="19"  coef=".322"/><qTerm  idx="-1"  idxOne="12"  idxTwo="20"  coef=".4635"/><qTerm  idx="-1"  idxOne="12"  idxTwo="22"  coef=".9807"/><qTerm  idx="-1"  idxOne="12"  idxTwo="23"  coef="-.2035"/><qTerm  idx="-1"  idxOne="12"  idxTwo="25"  coef="-.2873"/><qTerm  idx="-1"  idxOne="12"  idxTwo="27"  coef=".7703"/><qTerm  idx="-1"  idxOne="12"  idxTwo="31"  coef=".6507"/><qTerm  idx="-1"  idxOne="12"  idxTwo="39"  coef=".6171"/><qTerm  idx="-1"  idxOne="13"  idxTwo="13"  coef="-.2164"/><qTerm  idx="-1"  idxOne="13"  idxTwo="14"  coef=".5846"/><qTerm  idx="-1"  idxOne="13"  idxTwo="15"  coef=".4976"/><qTerm  idx="-1"  idxOne="13"  idxTwo="17"  coef="-.3765"/><qTerm  idx="-1"  idxOne="13"  idxTwo="18"  coef=".4271"/><qTerm  idx="-1"  idxOne="13"  idxTwo="23"  coef=".7938"/><qTerm  idx="-1"  idxOne="13"  idxTwo="25"  coef=".1681"/><qTerm  idx="-1"  idxOne="13"  idxTwo="26"  coef="-.3477"/><qTerm  idx="-1"  idxOne="13"  idxTwo="27"  coef="7.36e-2"/><qTerm  idx="-1"  idxOne="13"  idxTwo="28"  coef=".2742"/><qTerm  idx="-1"  idxOne="13"  idxTwo="29"  coef=".1151"/><qTerm  idx="-1"  idxOne="13"  idxTwo="30"  coef="-.7362"/><qTerm  idx="-1"  idxOne="13"  idxTwo="31"  coef=".2549"/><qTerm  idx="-1"  idxOne="13"  idxTwo="35"  coef=".8461"/><qTerm  idx="-1"  idxOne="13"  idxTwo="36"  coef="-.2822"/><qTerm  idx="-1"  idxOne="13"  idxTwo="38"  coef="-.7142"/><qTerm  idx="-1"  idxOne="13"  idxTwo="39"  coef=".2866"/><qTerm  idx="-1"  idxOne="14"  idxTwo="15"  coef=".8319"/><qTerm  idx="-1"  idxOne="14"  idxTwo="16"  coef=".7997"/><qTerm  idx="-1"  idxOne="14"  idxTwo="17"  coef=".1331"/><qTerm  idx="-1"  idxOne="14"  idxTwo="19"  coef="-.1419"/><qTerm  idx="-1"  idxOne="14"  idxTwo="26"  coef="-1.54e-2"/><qTerm  idx="-1"  idxOne="14"  idxTwo="27"  coef="-.2532"/><qTerm  idx="-1"  idxOne="14"  idxTwo="28"  coef="-.1983"/><qTerm  idx="-1"  idxOne="14"  idxTwo="30"  coef=".7262"/><qTerm  idx="-1"  idxOne="14"  idxTwo="31"  coef="-.4329"/><qTerm  idx="-1"  idxOne="14"  idxTwo="33"  coef=".6863"/><qTerm  idx="-1"  idxOne="14"  idxTwo="35"  coef=".4901"/><qTerm  idx="-1"  idxOne="14"  idxTwo="37"  coef="-.4103"/><qTerm  idx="-1"  idxOne="14"  idxTwo="38"  coef=".3792"/><qTerm  idx="-1"  idxOne="14"  idxTwo="39"  coef="-.7852"/><qTerm  idx="-1"  idxOne="15"  idxTwo="15"  coef=".3661"/><qTerm  idx="-1"  idxOne="15"  idxTwo="20"  coef="-.4386"/><qTerm  idx="-1"  idxOne="15"  idxTwo="22"  coef="-.2315"/><qTerm  idx="-1"  idxOne="15"  idxTwo="23"  coef=".4227"/><qTerm  idx="-1"  idxOne="15"  idxTwo="24"  coef=".2241"/><qTerm  idx="-1"  idxOne="15"  idxTwo="25"  coef="-.1825"/><qTerm  idx="-1"  idxOne="15"  idxTwo="26"  coef="-.4632"/><qTerm  idx="-1"  idxOne="15"  idxTwo="28"  coef="-.6035"/><qTerm  idx="-1"  idxOne="15"  idxTwo="29"  coef=".1008"/><qTerm  idx="-1"  idxOne="15"  idxTwo="37"  coef=".9895"/><qTerm  idx="-1"  idxOne="16"  idxTwo="17"  coef="-.9036"/><qTerm  idx="-1"  idxOne="16"  idxTwo="18"  coef="-.6317"/><qTerm  idx="-1"  idxOne="16"  idxTwo="19"  coef=".4729"/><qTerm  idx="-1"  idxOne="16"  idxTwo="20"  coef="-.559"/><qTerm  idx="-1"  idxOne="16"  idxTwo="22"  coef=".7571"/><qTerm  idx="-1"  idxOne="16"  idxTwo="24"  coef="-.2198"/><qTerm  idx="-1"  idxOne="16"  idxTwo="25"  coef=".9797"/><qTerm  idx="-1"  idxOne="16"  idxTwo="27"  coef="-6.95e-2"/><qTerm  idx="-1"  idxOne="16"  idxTwo="28"  coef=".3148"/><qTerm  idx="-1"  idxOne="16"  idxTwo="29"  coef=".3282"/><qTerm  idx="-1"  idxOne="16"  idxTwo="32"  coef="7.42e-2"/><qTerm  idx="-1"  idxOne="16"  idxTwo="34"  coef="-.5517"/><qTerm  idx="-1"  idxOne="16"  idxTwo="35"  coef="-.8655"/><qTerm  idx="-1"  idxOne="16"  idxTwo="37"  coef="-.5276"/><qTerm  idx="-1"  idxOne="17"  idxTwo="17"  coef=".1205"/><qTerm  idx="-1"  idxOne="17"  idxTwo="19"  coef=".5673"/><qTerm  idx="-1"  idxOne="17"  idxTwo="22"  coef="-.4733"/><qTerm  idx="-1"  idxOne="17"  idxTwo="23"  coef=".9339"/><qTerm  idx="-1"  idxOne="17"  idxTwo="24"  coef="-.2615"/><qTerm  idx="-1"  idxOne="17"  idxTwo="25"  coef="-.8921"/><qTerm  idx="-1"  idxOne="17"  idxTwo="26"  coef="-.9045"/><qTerm  idx="-1"  idxOne="17"  idxTwo="29"  coef=".1383"/><qTerm  idx="-1"  idxOne="17"  idxTwo="31"  coef="-.7392"/><qTerm  idx="-1"  idxOne="17"  idxTwo="33"  coef="-.5785"/><qTerm  idx="-1"  idxOne="17"  idxTwo="39"  coef="-.8913"/><qTerm  idx="-1"  idxOne="18"  idxTwo="18"  coef="-.1961"/><qTerm  idx="-1"  idxOne="18"  idxTwo="19"  coef=".425"/><qTerm  idx="-1"  idxOne="18"  idxTwo="22"  coef="6.11e-2"/><qTerm  idx="-1"  idxOne="18"  idxTwo="24"  coef="-.767"/><qTerm  idx="-1"  idxOne="18"  idxTwo="25"  coef="-.5925"/><qTerm  idx="-1"  idxOne="18"  idxTwo="26"  coef="-.5909"/><qTerm  idx="-1"  idxOne="18"  idxTwo="27"  coef=".2244"/><qTerm  idx="-1"  idxOne="18"  idxTwo="28"  coef="2.29e-2"/><qTerm  idx="-1"  idxOne="18"  idxTwo="29"  coef="-.4235"/><qTerm  idx="-1"  idxOne="18"  idxTwo="35"  coef="6.1e-2"/><qTerm  idx="-1"  idxOne="18"  idxTwo="38"  coef="-.6407"/><qTerm  idx="-1"  idxOne="18"  idxTwo="39"  coef="-.801"/><qTerm  idx="-1"  idxOne="19"  idxTwo="19"  coef="8.97e-2"/><qTerm  idx="-1"  idxOne="19"  idxTwo="21"  coef="-.6056"/><qTerm  idx="-1"  idxOne="19"  idxTwo="22"  coef=".8974"/><qTerm  idx="-1"  idxOne="19"  idxTwo="23"  coef=".7053"/><qTerm  idx="-1"  idxOne="19"  idxTwo="24"  coef="-9.32e-2"/><qTerm  idx="-1"  idxOne="19"  idxTwo="25"  coef=".6822"/><qTerm  idx="-1"  idxOne="19"  idxTwo="26"  coef=".5184"/><qTerm  idx="-1"  idxOne="19"  idxTwo="27"  coef=".6262"/><qTerm  idx="-1"  idxOne="19"  idxTwo="29"  coef="-.7109"/><qTerm  idx="-1"  idxOne="19"  idxTwo="31"  coef=".323"/><qTerm  idx="-1"  idxOne="19"  idxTwo="34"  coef="-.321"/><qTerm  idx="-1"  idxOne="19"  idxTwo="36"  coef="-2.44e-2"/><qTerm  idx="-1"  idxOne="19"  idxTwo="39"  coef="9.99e-2"/><qTerm  idx="-1"  idxOne="20"  idxTwo="20"  coef="-.642"/><qTerm  idx="-1"  idxOne="20"  idxTwo="22"  coef="-.5983"/><qTerm  idx="-1"  idxOne="20"  idxTwo="23"  coef="4.95e-2"/><qTerm  idx="-1"  idxOne="20"  idxTwo="24"  coef=".4789"/><qTerm  idx="-1"  idxOne="20"  idxTwo="27"  coef=".3427"/><qTerm  idx="-1"  idxOne="20"  idxTwo="28"  coef="-.2211"/><qTerm  idx="-1"  idxOne="20"  idxTwo="29"  coef=".82"/><qTerm  idx="-1"  idxOne="20"  idxTwo="30"  coef="-.8025"/><qTerm  idx="-1"  idxOne="20"  idxTwo="31"  coef="7.41e-2"/><qTerm  idx="-1"  idxOne="20"  idxTwo="33"  coef=".6985"/><qTerm  idx="-1"  idxOne="20"  idxTwo="34"  coef="-6.56e-2"/><qTerm  idx="-1"  idxOne="20"  idxTwo="36"  coef=".2794"/><qTerm  idx="-1"  idxOne="20"  idxTwo="39"  coef="-.4231"/><qTerm  idx="-1"  idxOne="21"  idxTwo="21"  coef="6.e-4"/><qTerm  idx="-1"  idxOne="21"  idxTwo="22"  coef="-.3288"/><qTerm  idx="-1"  idxOne="21"  idxTwo="24"  coef="-.1795"/><qTerm  idx="-1"  idxOne="21"  idxTwo="31"  coef=".6345"/><qTerm  idx="-1"  idxOne="21"  idxTwo="33"  coef="-.7073"/><qTerm  idx="-1"  idxOne="21"  idxTwo="34"  coef=".275"/><qTerm  idx="-1"  idxOne="21"  idxTwo="35"  coef="-.4026"/><qTerm  idx="-1"  idxOne="21"  idxTwo="36"  coef=".3866"/><qTerm  idx="-1"  idxOne="21"  idxTwo="37"  coef=".695"/><qTerm  idx="-1"  idxOne="21"  idxTwo="38"  coef="-.29"/><qTerm  idx="-1"  idxOne="21"  idxTwo="39"  coef=".9495"/><qTerm  idx="-1"  idxOne="22"  idxTwo="24"  coef="-.3459"/><qTerm  idx="-1"  idxOne="22"  idxTwo="25"  coef="-.1863"/><qTerm  idx="-1"  idxOne="22"  idxTwo="28"  coef="8.91e-2"/><qTerm  idx="-1"  idxOne="22"  idxTwo="30"  coef=".9144"/><qTerm  idx="-1"  idxOne="22"  idxTwo="31"  coef="-.9632"/><qTerm  idx="-1"  idxOne="22"  idxTwo="33"  coef=".7519"/><qTerm  idx="-1"  idxOne="22"  idxTwo="38"  coef="-.3963"/><qTerm  idx="-1"  idxOne="22"  idxTwo="39"  coef="-4.91e-2"/><qTerm  idx="-1"  idxOne="23"  idxTwo="23"  coef=".9241"/><qTerm  idx="-1"  idxOne="23"  idxTwo="26"  coef="-.2807"/><qTerm  idx="-1"  idxOne="23"  idxTwo="28"  coef="-.6359"/><qTerm  idx="-1"  idxOne="23"  idxTwo="29"  coef=".9124"/><qTerm  idx="-1"  idxOne="23"  idxTwo="30"  coef=".6008"/><qTerm  idx="-1"  idxOne="23"  idxTwo="31"  coef=".9007"/><qTerm  idx="-1"  idxOne="23"  idxTwo="35"  coef="-.6731"/><qTerm  idx="-1"  idxOne="23"  idxTwo="39"  coef="-.3894"/><qTerm  idx="-1"  idxOne="24"  idxTwo="26"  coef="-.2257"/><qTerm  idx="-1"  idxOne="24"  idxTwo="27"  coef="-.7549"/><qTerm  idx="-1"  idxOne="24"  idxTwo="31"  coef=".1911"/><qTerm  idx="-1"  idxOne="24"  idxTwo="37"  coef=".9663"/><qTerm  idx="-1"  idxOne="24"  idxTwo="38"  coef="-.5739"/><qTerm  idx="-1"  idxOne="24"  idxTwo="39"  coef="-.6995"/><qTerm  idx="-1"  idxOne="25"  idxTwo="26"  coef="2.42e-2"/><qTerm  idx="-1"  idxOne="25"  idxTwo="30"  coef="-.4462"/><qTerm  idx="-1"  idxOne="25"  idxTwo="32"  coef=".3482"/><qTerm  idx="-1"  idxOne="25"  idxTwo="34"  coef=".3343"/><qTerm  idx="-1"  idxOne="25"  idxTwo="36"  coef="5.05e-2"/><qTerm  idx="-1"  idxOne="26"  idxTwo="26"  coef=".4626"/><qTerm  idx="-1"  idxOne="26"  idxTwo="28"  coef=".2719"/><qTerm  idx="-1"  idxOne="26"  idxTwo="31"  coef="-.9273"/><qTerm  idx="-1"  idxOne="26"  idxTwo="32"  coef=".5019"/><qTerm  idx="-1"  idxOne="26"  idxTwo="33"  coef="-.4407"/><qTerm  idx="-1"  idxOne="26"  idxTwo="34"  coef="-.214"/><qTerm  idx="-1"  idxOne="26"  idxTwo="35"  coef="-.5117"/><qTerm  idx="-1"  idxOne="26"  idxTwo="37"  coef="3.64e-2"/><qTerm  idx="-1"  idxOne="26"  idxTwo="39"  coef="-.957"/><qTerm  idx="-1"  idxOne="27"  idxTwo="29"  coef="-.6156"/><qTerm  idx="-1"  idxOne="27"  idxTwo="33"  coef=".6705"/><qTerm  idx="-1"  idxOne="27"  idxTwo="37"  coef="-.5714"/><qTerm  idx="-1"  idxOne="27"  idxTwo="39"  coef=".6198"/><qTerm  idx="-1"  idxOne="28"  idxTwo="28"  coef="-.1973"/><qTerm  idx="-1"  idxOne="28"  idxTwo="29"  coef=".7982"/><qTerm  idx="-1"  idxOne="29"  idxTwo="29"  coef="-.9545"/><qTerm  idx="-1"  idxOne="29"  idxTwo="30"  coef="-.6852"/><qTerm  idx="-1"  idxOne="29"  idxTwo="32"  coef="4.4e-3"/><qTerm  idx="-1"  idxOne="29"  idxTwo="33"  coef=".3623"/><qTerm  idx="-1"  idxOne="29"  idxTwo="35"  coef="-.1984"/><qTerm  idx="-1"  idxOne="29"  idxTwo="39"  coef="-.4786"/><qTerm  idx="-1"  idxOne="30"  idxTwo="30"  coef=".6794"/><qTerm  idx="-1"  idxOne="30"  idxTwo="31"  coef="-.3213"/><qTerm  idx="-1"  idxOne="30"  idxTwo="32"  coef="-.381"/><qTerm  idx="-1"  idxOne="30"  idxTwo="33"  coef=".7699"/><qTerm  idx="-1"  idxOne="30"  idxTwo="35"  coef="-.3381"/><qTerm  idx="-1"  idxOne="30"  idxTwo="38"  coef="-.5644"/><qTerm  idx="-1"  idxOne="30"  idxTwo="39"  coef="-.9852"/><qTerm  idx="-1"  idxOne="31"  idxTwo="31"  coef="7.75e-2"/><qTerm  idx="-1"  idxOne="31"  idxTwo="34"  coef=".1185"/><qTerm  idx="-1"  idxOne="31"  idxTwo="35"  coef="-.1156"/><qTerm  idx="-1"  idxOne="31"  idxTwo="36"  coef=".2021"/><qTerm  idx="-1"  idxOne="31"  idxTwo="38"  coef="-.4542"/><qTerm  idx="-1"  idxOne="31"  idxTwo="39"  coef=".7723"/><qTerm  idx="-1"  idxOne="32"  idxTwo="32"  coef="-.3393"/><qTerm  idx="-1"  idxOne="32"  idxTwo="36"  coef="-.3538"/><qTerm  idx="-1"  idxOne="32"  idxTwo="37"  coef=".1959"/><qTerm  idx="-1"  idxOne="32"  idxTwo="39"  coef="-.6505"/><qTerm  idx="-1"  idxOne="33"  idxTwo="33"  coef="3.8e-3"/><qTerm  idx="-1"  idxOne="33"  idxTwo="39"  coef="-.3917"/><qTerm  idx="-1"  idxOne="34"  idxTwo="34"  coef=".4689"/><qTerm  idx="-1"  idxOne="34"  idxTwo="35"  coef="2.9e-2"/><qTerm  idx="-1"  idxOne="34"  idxTwo="39"  coef=".4065"/><qTerm  idx="-1"  idxOne="35"  idxTwo="37"  coef="-9.16e-2"/><qTerm  idx="-1"  idxOne="35"  idxTwo="38"  coef=".3767"/><qTerm  idx="-1"  idxOne="35"  idxTwo="39"  coef=".473"/><qTerm  idx="-1"  idxOne="36"  idxTwo="36"  coef=".3784"/><qTerm  idx="-1"  idxOne="36"  idxTwo="38"  coef=".9224"/><qTerm  idx="-1"  idxOne="36"  idxTwo="39"  coef="-.2625"/><qTerm  idx="-1"  idxOne="37"  idxTwo="37"  coef="-1.96e-2"/><qTerm  idx="-1"  idxOne="37"  idxTwo="38"  coef="-.1991"/><qTerm  idx="-1"  idxOne="37"  idxTwo="39"  coef="-.5756"/><qTerm  idx="-1"  idxOne="38"  idxTwo="38"  coef="-.3034"/><qTerm  idx="-1"  idxOne="38"  idxTwo="39"  coef="-.1719"/><qTerm  idx="-1"  idxOne="39"  idxTwo="39"  coef=".1181"/></quadraticCoefficients></instanceData></osil>
